
                  X          TrueDist-Stress33

                0.                 2.3168E+06 
                2.00006E-03        4.63176E+06
                4.00017E-03        6.9415E+06 
                6.00033E-03        9.24295E+06
                8.00052E-03       11.5345E+06 
               10.0008E-03        13.8154E+06 
               12.001E-03         16.083E+06  
               14.0013E-03        18.335E+06  
               16.0017E-03        20.5689E+06 
               18.0021E-03        22.7826E+06 
               20.0025E-03        24.9738E+06 
               22.003E-03         27.1404E+06 
               24.0036E-03        29.2802E+06 
               26.0041E-03        31.3911E+06 
               28.0047E-03        33.471E+06  
               30.0054E-03        35.5179E+06 
               32.006E-03         37.5297E+06 
               34.0067E-03        39.5045E+06 
               36.0075E-03        41.4403E+06 
               38.0083E-03        43.3352E+06 
               40.0091E-03        45.1873E+06 
               42.0099E-03        46.9948E+06 
               44.0108E-03        48.756E+06  
               46.0118E-03        50.469E+06  
               48.0127E-03        52.1323E+06 
               50.0137E-03        53.7441E+06 
               52.0147E-03        55.3028E+06 
               54.0157E-03        56.807E+06  
               56.0168E-03        58.2551E+06 
               58.0179E-03        59.6457E+06 
               60.019E-03         60.9775E+06 
               62.0202E-03        62.249E+06  
               64.0213E-03        63.4592E+06 
               66.0225E-03        64.6067E+06 
               68.0237E-03        65.6904E+06 
               70.0249E-03        66.7094E+06 
               72.0262E-03        67.6625E+06 
               74.0275E-03        68.5488E+06 
               76.0287E-03        69.3674E+06 
               78.03E-03          70.1177E+06 
               80.0313E-03        70.7987E+06 
               82.0326E-03        71.4098E+06 
               84.034E-03         71.9505E+06 
               86.0353E-03        72.4201E+06 
               88.0367E-03        72.8183E+06 
               90.038E-03         73.1447E+06 
               92.0394E-03        73.3988E+06 
               94.0407E-03        73.5805E+06 
               96.0421E-03        73.6896E+06 
               98.0434E-03        73.726E+06  
              100.045E-03         73.6896E+06 
              102.046E-03         73.5805E+06 
              104.048E-03         73.3987E+06 
              106.049E-03         73.1446E+06 
              108.05E-03          72.8182E+06 
              110.052E-03         72.42E+06   
              112.053E-03         71.9503E+06 
              114.054E-03         71.4096E+06 
              116.056E-03         70.7984E+06 
              118.057E-03         70.1174E+06 
              120.058E-03         69.3672E+06 
              122.059E-03         68.5485E+06 
              124.061E-03         67.6621E+06 
              126.062E-03         66.709E+06  
              128.063E-03         65.6901E+06 
              130.064E-03         64.6063E+06 
              132.066E-03         63.4588E+06 
              134.067E-03         62.2486E+06 
              136.068E-03         60.977E+06  
              138.069E-03         59.6452E+06 
              140.07E-03          58.2546E+06 
              142.071E-03         56.8065E+06 
              144.072E-03         55.3023E+06 
              146.073E-03         53.7435E+06 
              148.074E-03         52.1317E+06 
              150.075E-03         50.4685E+06 
              152.076E-03         48.7554E+06 
              154.077E-03         46.9942E+06 
              156.078E-03         45.1867E+06 
              158.079E-03         43.3345E+06 
              160.079E-03         41.4396E+06 
              162.08E-03          39.5038E+06 
              164.081E-03         37.529E+06  
              166.082E-03         35.5172E+06 
              168.082E-03         33.4703E+06 
              170.083E-03         31.3904E+06 
              172.083E-03         29.2794E+06 
              174.084E-03         27.1395E+06 
              176.084E-03         24.9725E+06 
              178.085E-03         22.7804E+06 
              180.085E-03         20.5654E+06 
              182.086E-03         18.3294E+06 
              184.086E-03         16.0762E+06 
              186.086E-03         13.8112E+06 
              188.086E-03         11.5465E+06 
              190.087E-03          9.30171E+06
              192.087E-03          7.11697E+06
              194.087E-03          5.03979E+06
              196.087E-03          3.19102E+06




